&inputph
outdir='./tmp'
prefix='struct'
ldisp=.true.
nq1=2
nq2=2
nq3=2
fildyn='struct.dyn'
tr2_ph=1.0d-16
fildvscf='dvscf'
/

