&input
asr='crystal'
fildyn='struct.dyn1'
filxsf='struct_phmodes.axsf'
/

