&input
zasr='crystal'
fildyn='struct.dyn'
flfrc='struct.fc'
/

