&CONTROL
outdir = './tmp'
prefix = 'struct'
pseudo_dir = './pseudos/qe'
calculation = 'bands'
tprnfor = .true.
/

&SYSTEM
ibrav = 0
ntyp = 2
nat = 2
nbnd = 9
ecutwfc = 80.0
/

&ELECTRONS
/

&IONS
/

&CELL
/


ATOMIC_SPECIES
Li 6.94 Li.upf
F 18.998403163 F.upf

ATOMIC_POSITIONS angstrom
F 0.0 0.0 0.0
Li -2.01 2.01 2.01

CELL_PARAMETERS angstrom
-2.01 0.0 2.01
0.0 2.01 2.01
-2.01 2.01 0.0

K_POINTS crystal
8
0.0 0.0 0.001 1.0
0.0 0.0 0.501 1.0
0.0 0.5 0.001 1.0
0.0 0.5 0.501 1.0
0.5 0.0 0.001 1.0
0.5 0.0 0.501 1.0
0.5 0.5 0.001 1.0
0.5 0.5 0.501 1.0
